; Copyright (c) 2026 The RIINA Authors. All rights reserved.
; Copyright (c) 2026 The RIINA Authors.
; Auto-generated from 02_FORMAL/coq/domains/IrisSeparationLogic.v (21 assertions)
; Generated by scripts/generate-full-stack.py
; Module: IrisSeparationLogic

(set-logic ALL)
(set-option :produce-models true)

; hprop (matches Coq: Inductive hprop)
(declare-datatypes ((hprop 0)) (((HEmpty) (HPointsTo) (HStar) (HPure) (HWand))))

; fprop (matches Coq: Inductive fprop)
(declare-datatypes ((fprop 0)) (((FEmpty) (FPointsTo) (FStar) (FPure))))

; disjoint (matches Coq: Definition disjoint)
(define-fun disjoint () Prop true)

; heap_union (matches Coq: Definition heap_union)
(define-fun heap_union () heap true)

; fempty (matches Coq: Definition fempty)
(define-fun fempty () fheap true)

; fsingleton (matches Coq: Definition fsingleton)
(define-fun fsingleton ((l loc) (v val)) fheap
  true)

; fdisjoint (matches Coq: Definition fdisjoint)
(define-fun fdisjoint () Prop true)

; funion (matches Coq: Definition funion)
(define-fun funion () fheap true)

; 1 (matches Coq: Theorem 1)
(assert (= true true)) ; 1 [untranslatable]

; 2 (matches Coq: Theorem 2)
(assert (= true true)) ; 2 [untranslatable]

; disjoint_sym (matches Coq: Lemma disjoint_sym)
(assert (= true true)) ; disjoint_sym [untranslatable]

; 3 (matches Coq: Theorem 3)
(assert (= true true)) ; 3 [untranslatable]

; 4 (matches Coq: Theorem 4)
(assert (= true true)) ; 4 [untranslatable]

; 5 (matches Coq: Theorem 5)
(assert (= true true)) ; 5 [untranslatable]

; frame_rule (matches Coq: Theorem frame_rule)
(assert (= true true)) ; frame_rule [untranslatable]

; 7 (matches Coq: Theorem 7)
(assert (= true true)) ; 7 [untranslatable]

; fdisjoint_empty_r (matches Coq: Theorem fdisjoint_empty_r)
(assert (= true true)) ; fdisjoint_empty_r [untranslatable]

; 9 (matches Coq: Theorem 9)
(assert (= true true)) ; 9 [untranslatable]

; funion_empty_r (matches Coq: Theorem funion_empty_r)
(assert (= true true)) ; funion_empty_r [untranslatable]

; 11 (matches Coq: Theorem 11)
(assert (= true true)) ; 11 [untranslatable]

; 12 (matches Coq: Theorem 12)
(assert (= true true)) ; 12 [untranslatable]

; 13 (matches Coq: Theorem 13)
(assert (= true true)) ; 13 [untranslatable]

; 14 (matches Coq: Theorem 14)
(assert (= true true)) ; 14 [untranslatable]

; 15 (matches Coq: Theorem 15)
(assert (= true true)) ; 15 [untranslatable]

; 16 (matches Coq: Theorem 16)
(assert (= true true)) ; 16 [untranslatable]

; 17 (matches Coq: Theorem 17)
(assert (= true true)) ; 17 [untranslatable]

; 18 (matches Coq: Theorem 18)
(assert (= true true)) ; 18 [untranslatable]

; 19 (matches Coq: Theorem 19)
(assert (= true true)) ; 19 [untranslatable]

; 20 (matches Coq: Theorem 20)
(assert (= true true)) ; 20 [untranslatable]

; Verify all assertions are satisfiable
(check-sat)
(exit)
